c nIsolatedPIs 79
c maxPI 56
p cnf 233 532
c gate 57 34 51 0
34 -57 0
51 -57 0
-34 -51 57 0
c gate 58 36 -51 0
36 -58 0
-51 -58 0
-36 51 58 0
c gate 59 50 -58 0
50 -59 0
-58 -59 0
-50 58 59 0
c gate 60 -57 59 0
-57 -60 0
59 -60 0
57 -59 60 0
c gate 61 37 -51 0
37 -61 0
-51 -61 0
-37 51 61 0
c gate 62 35 51 0
35 -62 0
51 -62 0
-35 -51 62 0
c gate 63 -50 -62 0
-50 -63 0
-62 -63 0
50 62 63 0
c gate 64 -61 63 0
-61 -64 0
63 -64 0
61 -63 64 0
c gate 65 -60 -64 0
-60 -65 0
-64 -65 0
60 64 65 0
c gate 66 53 -65 0
53 -66 0
-65 -66 0
-53 65 66 0
c gate 67 43 51 0
43 -67 0
51 -67 0
-43 -51 67 0
c gate 68 45 -51 0
45 -68 0
-51 -68 0
-45 51 68 0
c gate 69 -50 -68 0
-50 -69 0
-68 -69 0
50 68 69 0
c gate 70 -67 69 0
-67 -70 0
69 -70 0
67 -69 70 0
c gate 71 44 -51 0
44 -71 0
-51 -71 0
-44 51 71 0
c gate 72 42 51 0
42 -72 0
51 -72 0
-42 -51 72 0
c gate 73 50 -72 0
50 -73 0
-72 -73 0
-50 72 73 0
c gate 74 -71 73 0
-71 -74 0
73 -74 0
71 -73 74 0
c gate 75 -70 -74 0
-70 -75 0
-74 -75 0
70 74 75 0
c gate 76 -53 -75 0
-53 -76 0
-75 -76 0
53 75 76 0
c gate 77 52 -76 0
52 -77 0
-76 -77 0
-52 76 77 0
c gate 78 -66 77 0
-66 -78 0
77 -78 0
66 -77 78 0
c gate 79 38 51 0
38 -79 0
51 -79 0
-38 -51 79 0
c gate 80 40 -51 0
40 -80 0
-51 -80 0
-40 51 80 0
c gate 81 50 -80 0
50 -81 0
-80 -81 0
-50 80 81 0
c gate 82 -79 81 0
-79 -82 0
81 -82 0
79 -81 82 0
c gate 83 41 -51 0
41 -83 0
-51 -83 0
-41 51 83 0
c gate 84 39 51 0
39 -84 0
51 -84 0
-39 -51 84 0
c gate 85 -50 -84 0
-50 -85 0
-84 -85 0
50 84 85 0
c gate 86 -83 85 0
-83 -86 0
85 -86 0
83 -85 86 0
c gate 87 -82 -86 0
-82 -87 0
-86 -87 0
82 86 87 0
c gate 88 53 -87 0
53 -88 0
-87 -88 0
-53 87 88 0
c gate 89 47 51 0
47 -89 0
51 -89 0
-47 -51 89 0
c gate 90 49 -51 0
49 -90 0
-51 -90 0
-49 51 90 0
c gate 91 -50 -90 0
-50 -91 0
-90 -91 0
50 90 91 0
c gate 92 -89 91 0
-89 -92 0
91 -92 0
89 -91 92 0
c gate 93 48 -51 0
48 -93 0
-51 -93 0
-48 51 93 0
c gate 94 46 51 0
46 -94 0
51 -94 0
-46 -51 94 0
c gate 95 50 -94 0
50 -95 0
-94 -95 0
-50 94 95 0
c gate 96 -93 95 0
-93 -96 0
95 -96 0
93 -95 96 0
c gate 97 -92 -96 0
-92 -97 0
-96 -97 0
92 96 97 0
c gate 98 -53 -97 0
-53 -98 0
-97 -98 0
53 97 98 0
c gate 99 -52 -98 0
-52 -99 0
-98 -99 0
52 98 99 0
c gate 100 -88 99 0
-88 -100 0
99 -100 0
88 -99 100 0
c gate 101 -78 -100 0
-78 -101 0
-100 -101 0
78 100 101 0
c gate 102 -55 -101 0
-55 -102 0
-101 -102 0
55 101 102 0
c gate 103 -25 51 0
-25 -103 0
51 -103 0
25 -51 103 0
c gate 104 -27 -51 0
-27 -104 0
-51 -104 0
27 51 104 0
c gate 105 50 -104 0
50 -105 0
-104 -105 0
-50 104 105 0
c gate 106 -103 105 0
-103 -106 0
105 -106 0
103 -105 106 0
c gate 107 -28 -51 0
-28 -107 0
-51 -107 0
28 51 107 0
c gate 108 -26 51 0
-26 -108 0
51 -108 0
26 -51 108 0
c gate 109 -107 -108 0
-107 -109 0
-108 -109 0
107 108 109 0
c gate 110 -50 109 0
-50 -110 0
109 -110 0
50 -109 110 0
c gate 111 -53 -110 0
-53 -111 0
-110 -111 0
53 110 111 0
c gate 112 -106 111 0
-106 -112 0
111 -112 0
106 -111 112 0
c gate 113 -17 51 0
-17 -113 0
51 -113 0
17 -51 113 0
c gate 114 -19 -51 0
-19 -114 0
-51 -114 0
19 51 114 0
c gate 115 50 -114 0
50 -115 0
-114 -115 0
-50 114 115 0
c gate 116 -113 115 0
-113 -116 0
115 -116 0
113 -115 116 0
c gate 117 -20 -51 0
-20 -117 0
-51 -117 0
20 51 117 0
c gate 118 -18 51 0
-18 -118 0
51 -118 0
18 -51 118 0
c gate 119 -117 -118 0
-117 -119 0
-118 -119 0
117 118 119 0
c gate 120 -50 119 0
-50 -120 0
119 -120 0
50 -119 120 0
c gate 121 53 -120 0
53 -121 0
-120 -121 0
-53 120 121 0
c gate 122 -116 121 0
-116 -122 0
121 -122 0
116 -121 122 0
c gate 123 -112 -122 0
-112 -123 0
-122 -123 0
112 122 123 0
c gate 124 52 -123 0
52 -124 0
-123 -124 0
-52 123 124 0
c gate 125 -21 51 0
-21 -125 0
51 -125 0
21 -51 125 0
c gate 126 -23 -51 0
-23 -126 0
-51 -126 0
23 51 126 0
c gate 127 50 -126 0
50 -127 0
-126 -127 0
-50 126 127 0
c gate 128 -125 127 0
-125 -128 0
127 -128 0
125 -127 128 0
c gate 129 -24 -51 0
-24 -129 0
-51 -129 0
24 51 129 0
c gate 130 -22 51 0
-22 -130 0
51 -130 0
22 -51 130 0
c gate 131 -129 -130 0
-129 -131 0
-130 -131 0
129 130 131 0
c gate 132 -50 131 0
-50 -132 0
131 -132 0
50 -131 132 0
c gate 133 53 -132 0
53 -133 0
-132 -133 0
-53 132 133 0
c gate 134 -128 133 0
-128 -134 0
133 -134 0
128 -133 134 0
c gate 135 -29 51 0
-29 -135 0
51 -135 0
29 -51 135 0
c gate 136 -31 -51 0
-31 -136 0
-51 -136 0
31 51 136 0
c gate 137 50 -136 0
50 -137 0
-136 -137 0
-50 136 137 0
c gate 138 -135 137 0
-135 -138 0
137 -138 0
135 -137 138 0
c gate 139 -32 -51 0
-32 -139 0
-51 -139 0
32 51 139 0
c gate 140 -30 51 0
-30 -140 0
51 -140 0
30 -51 140 0
c gate 141 -139 -140 0
-139 -141 0
-140 -141 0
139 140 141 0
c gate 142 -50 141 0
-50 -142 0
141 -142 0
50 -141 142 0
c gate 143 -53 -142 0
-53 -143 0
-142 -143 0
53 142 143 0
c gate 144 -138 143 0
-138 -144 0
143 -144 0
138 -143 144 0
c gate 145 -134 -144 0
-134 -145 0
-144 -145 0
134 144 145 0
c gate 146 -52 -145 0
-52 -146 0
-145 -146 0
52 145 146 0
c gate 147 55 -146 0
55 -147 0
-146 -147 0
-55 146 147 0
c gate 148 -124 147 0
-124 -148 0
147 -148 0
124 -147 148 0
c gate 149 -102 -148 0
-102 -149 0
-148 -149 0
102 148 149 0
c gate 150 54 149 0
54 -150 0
149 -150 0
-54 -149 150 0
c gate 151 -56 150 0
-56 -151 0
150 -151 0
56 -150 151 0
c gate 152 4 -51 0
4 -152 0
-51 -152 0
-4 51 152 0
c gate 153 2 51 0
2 -153 0
51 -153 0
-2 -51 153 0
c gate 154 -50 -153 0
-50 -154 0
-153 -154 0
50 153 154 0
c gate 155 -152 154 0
-152 -155 0
154 -155 0
152 -154 155 0
c gate 156 3 -51 0
3 -156 0
-51 -156 0
-3 51 156 0
c gate 157 1 51 0
1 -157 0
51 -157 0
-1 -51 157 0
c gate 158 50 -157 0
50 -158 0
-157 -158 0
-50 157 158 0
c gate 159 -156 158 0
-156 -159 0
158 -159 0
156 -158 159 0
c gate 160 -155 -159 0
-155 -160 0
-159 -160 0
155 159 160 0
c gate 161 53 -160 0
53 -161 0
-160 -161 0
-53 160 161 0
c gate 162 11 -51 0
11 -162 0
-51 -162 0
-11 51 162 0
c gate 163 9 51 0
9 -163 0
51 -163 0
-9 -51 163 0
c gate 164 50 -163 0
50 -164 0
-163 -164 0
-50 163 164 0
c gate 165 -162 164 0
-162 -165 0
164 -165 0
162 -164 165 0
c gate 166 12 -51 0
12 -166 0
-51 -166 0
-12 51 166 0
c gate 167 10 51 0
10 -167 0
51 -167 0
-10 -51 167 0
c gate 168 -50 -167 0
-50 -168 0
-167 -168 0
50 167 168 0
c gate 169 -166 168 0
-166 -169 0
168 -169 0
166 -168 169 0
c gate 170 -165 -169 0
-165 -170 0
-169 -170 0
165 169 170 0
c gate 171 -53 -170 0
-53 -171 0
-170 -171 0
53 170 171 0
c gate 172 52 -171 0
52 -172 0
-171 -172 0
-52 171 172 0
c gate 173 -161 172 0
-161 -173 0
172 -173 0
161 -172 173 0
c gate 174 8 -51 0
8 -174 0
-51 -174 0
-8 51 174 0
c gate 175 6 51 0
6 -175 0
51 -175 0
-6 -51 175 0
c gate 176 -50 -175 0
-50 -176 0
-175 -176 0
50 175 176 0
c gate 177 -174 176 0
-174 -177 0
176 -177 0
174 -176 177 0
c gate 178 7 -51 0
7 -178 0
-51 -178 0
-7 51 178 0
c gate 179 5 51 0
5 -179 0
51 -179 0
-5 -51 179 0
c gate 180 50 -179 0
50 -180 0
-179 -180 0
-50 179 180 0
c gate 181 -178 180 0
-178 -181 0
180 -181 0
178 -180 181 0
c gate 182 -177 -181 0
-177 -182 0
-181 -182 0
177 181 182 0
c gate 183 53 -182 0
53 -183 0
-182 -183 0
-53 182 183 0
c gate 184 15 -51 0
15 -184 0
-51 -184 0
-15 51 184 0
c gate 185 13 51 0
13 -185 0
51 -185 0
-13 -51 185 0
c gate 186 50 -185 0
50 -186 0
-185 -186 0
-50 185 186 0
c gate 187 -184 186 0
-184 -187 0
186 -187 0
184 -186 187 0
c gate 188 16 -51 0
16 -188 0
-51 -188 0
-16 51 188 0
c gate 189 14 51 0
14 -189 0
51 -189 0
-14 -51 189 0
c gate 190 -50 -189 0
-50 -190 0
-189 -190 0
50 189 190 0
c gate 191 -188 190 0
-188 -191 0
190 -191 0
188 -190 191 0
c gate 192 -187 -191 0
-187 -192 0
-191 -192 0
187 191 192 0
c gate 193 -53 -192 0
-53 -193 0
-192 -193 0
53 192 193 0
c gate 194 -52 -193 0
-52 -194 0
-193 -194 0
52 193 194 0
c gate 195 -183 194 0
-183 -195 0
194 -195 0
183 -194 195 0
c gate 196 -173 -195 0
-173 -196 0
-195 -196 0
173 195 196 0
c gate 197 55 -196 0
55 -197 0
-196 -197 0
-55 196 197 0
c gate 198 50 109 0
50 -198 0
109 -198 0
-50 -109 198 0
c gate 199 -27 51 0
-27 -199 0
51 -199 0
27 -51 199 0
c gate 200 -29 -51 0
-29 -200 0
-51 -200 0
29 51 200 0
c gate 201 -50 -200 0
-50 -201 0
-200 -201 0
50 200 201 0
c gate 202 -199 201 0
-199 -202 0
201 -202 0
199 -201 202 0
c gate 203 -53 -202 0
-53 -203 0
-202 -203 0
53 202 203 0
c gate 204 -198 203 0
-198 -204 0
203 -204 0
198 -203 204 0
c gate 205 50 119 0
50 -205 0
119 -205 0
-50 -119 205 0
c gate 206 -19 51 0
-19 -206 0
51 -206 0
19 -51 206 0
c gate 207 -21 -51 0
-21 -207 0
-51 -207 0
21 51 207 0
c gate 208 -50 -207 0
-50 -208 0
-207 -208 0
50 207 208 0
c gate 209 -206 208 0
-206 -209 0
208 -209 0
206 -208 209 0
c gate 210 53 -209 0
53 -210 0
-209 -210 0
-53 209 210 0
c gate 211 -205 210 0
-205 -211 0
210 -211 0
205 -210 211 0
c gate 212 -204 -211 0
-204 -212 0
-211 -212 0
204 211 212 0
c gate 213 52 -212 0
52 -213 0
-212 -213 0
-52 212 213 0
c gate 214 50 131 0
50 -214 0
131 -214 0
-50 -131 214 0
c gate 215 -23 51 0
-23 -215 0
51 -215 0
23 -51 215 0
c gate 216 -25 -51 0
-25 -216 0
-51 -216 0
25 51 216 0
c gate 217 -50 -216 0
-50 -217 0
-216 -217 0
50 216 217 0
c gate 218 -215 217 0
-215 -218 0
217 -218 0
215 -217 218 0
c gate 219 53 -218 0
53 -219 0
-218 -219 0
-53 218 219 0
c gate 220 -214 219 0
-214 -220 0
219 -220 0
214 -219 220 0
c gate 221 50 141 0
50 -221 0
141 -221 0
-50 -141 221 0
c gate 222 -31 51 0
-31 -222 0
51 -222 0
31 -51 222 0
c gate 223 -33 -51 0
-33 -223 0
-51 -223 0
33 51 223 0
c gate 224 -50 -223 0
-50 -224 0
-223 -224 0
50 223 224 0
c gate 225 -222 224 0
-222 -225 0
224 -225 0
222 -224 225 0
c gate 226 -53 -225 0
-53 -226 0
-225 -226 0
53 225 226 0
c gate 227 -221 226 0
-221 -227 0
226 -227 0
221 -226 227 0
c gate 228 -220 -227 0
-220 -228 0
-227 -228 0
220 227 228 0
c gate 229 -52 -228 0
-52 -229 0
-228 -229 0
52 228 229 0
c gate 230 -55 -229 0
-55 -230 0
-229 -230 0
55 229 230 0
c gate 231 -213 230 0
-213 -231 0
230 -231 0
213 -230 231 0
c gate 232 -197 -231 0
-197 -232 0
-231 -232 0
197 231 232 0
c gate 233 151 -232 0
151 -233 0
-232 -233 0
-151 232 233 0
c PO
233 0
